NAME: instance_3095
TYPE: TSP
DIMENSION: 20
EDGE_WEIGHT_TYPE: EUC_2D
NODE_COORD_SECTION
0 57.94 98.40
1 81.73 41.19
2 89.36 3.65
3 94.38 79.48
4 82.38 48.35
5 4.71 81.00
6 47.32 67.92
7 40.99 30.92
8 81.69 65.70
9 50.18 62.04
10 17.88 13.90
11 9.11 9.09
12 45.18 3.33
13 36.89 22.58
14 45.74 34.78
15 39.49 63.29
16 51.32 77.66
17 98.55 32.56
18 34.77 45.13
19 55.51 92.75
EOF
